22	0

0	3	2	4	3
8	2	5	7
6	3	5	7	8
2	3	5	7	8
4	1	6
1	3	9	10	11
5	3	9	10	11
8	3	9	10	11
8	4	12	13	14	17
10	2	13	14
8	4	12	13	14	17
10	1	18
2	2	15	16
3	1	15
2	2	18	19
4	2	18	19
7	2	18	19
6	2	20	21
8	2	20	21
4	1	22
3	1	22
0	0
